1 1 1 0 1 0 1 1 0 
0 30 67 66 28 77 32 20 67 
30 0 39 33 30 74 63 68 20 
67 39 0 72 39 18 39 59 51 
66 33 72 0 67 26 45 54 72 
28 30 39 67 0 53 24 70 37 
77 74 18 26 53 0 48 46 17 
32 63 39 45 24 48 0 19 76 
20 68 59 54 70 46 19 0 41 
67 20 51 72 37 17 76 41 0 
2 50
1P 5P 3P 6B 9B 2P 4B 7P 8P = 239